(define-fun
  j4
  ((x Int)) Int x)
(define-fun
  i4
  ((x Int)) Int x)
(define-fun
  h1
  ((x Int)) Int x)
(define-fun
  g4
  ((x Int)) Int x)
(define-fun
  g3
  ((x Int)) Int (+ 1 x))
(define-fun
  g1
  () Int (+ 2 (+ 2 2)))
(define-fun
  g0
  ((x Int)) Int x)
(define-fun
  f5
  ((x Int)) Int (+ (* x x) x))
(define-fun-rec
  u5
  ((x Int) (y Int)) Int (ite (<= x 0) y (f5 (u5 (- x 1) y))))
(define-fun
  v5
  () Int (u5 2 2))
(define-fun
  f4
  ((x Int) (y Int)) Int (* (* x x) y))
(define-funs-rec
  ((u4
    ((x Int) (y Int) (z Int)) Int)
   (v4
    ((x Int) (y Int) (z Int)) Int))
  ((ite (<= x 0) y (f4 (u4 (- x 1) y z) (v4 (- x 1) y z)))
   (ite (<= x 0) z (u4 (- x 1) y z))))
(define-fun
  w4
  ((x Int)) Int (u4 2 x x))
(define-fun
  f3
  ((x Int)) Int (mod (mod (mod (w4 x) (+ 1 v5)) (+ 1 (+ 2 2))) 2))
(define-fun-rec
  t3
  ((x Int)) Int (ite (<= (f3 x) 0) x (t3 (+ x 1))))
(define-fun-rec
  u3
  ((x Int)) Int (ite (<= x 0) (t3 0) (t3 (+ (u3 (- x 1)) 1))))
(define-fun
  v3
  ((x Int)) Int (u3 (g3 x)))
(define-fun
  f2
  ((x Int)) Int (+ (* x x) x))
(define-fun-rec
  u2
  ((x Int) (y Int)) Int (ite (<= x 0) y (f2 (u2 (- x 1) y))))
(define-fun
  v2
  () Int (u2 2 2))
(define-fun
  f1
  ((x Int)) Int (mod (* x x) (+ 1 v2)))
(define-fun-rec
  u1
  ((x Int) (y Int)) Int (ite (<= x 0) y (f1 (u1 (- x 1) y))))
(define-fun
  v1
  ((x Int)) Int (u1 g1 x))
(define-fun
  f0
  ((x Int)) Int (mod (+ (+ (v1 x) 1) x) 2))
(define-fun-rec
  t0
  ((x Int)) Int (ite (<= (f0 x) 0) x (t0 (+ x 1))))
(define-fun-rec
  u0
  ((x Int)) Int (ite (<= x 0) (t0 0) (t0 (+ (u0 (- x 1)) 1))))
(assert-not
  (forall ((c Int)) (or (not (>= c 0)) (= (u0 c) (v3 c)))))
